language Essence 1.3

letting blksize_delta be
        function(1 --> 2, 2 --> 2, 3 --> 2, 4 --> 2, 5 --> 2, 6 --> 2, 7 --> 2, 8 --> 2, 9 --> 2, 10 --> 2)
letting maxcars be function(1 --> 3, 2 --> 3, 3 --> 3, 4 --> 3, 5 --> 3, 6 --> 3, 7 --> 3, 8 --> 3, 9 --> 3, 10 --> 3)
letting n_cars be 153
letting n_classes be 2
letting n_options be 10
letting quantity be function(1 --> 84, 2 --> 69)
letting usage be relation((1, 1), (1, 3), (1, 4), (1, 5), (1, 6), (1, 7), (1, 8), (1, 9), (2, 2), (2, 10))
$ Visualisation for usage
$  1  1
$  1  3
$  1  4
$  1  5
$  1  6
$  1  7
$  1  8
$  1  9
$  2  2
$  2 10

